
  12    4
  10   10   10   10

   0   0   0   0   0   1 2 
   3  10  10  10  10   3 5 4 3 
   4  10  10  10  10   2 7 6 
   6  10  10  10  10   2 8 7 
   6  10  10  10  10   2 8 7 
   6  10  10  10  10   2 9 8 
   2  10  10  10  10   2 11 9 
   8  10  10  10  10   1 10 
   3  10  10  10  10   1 12
   3  10  10  10  10   1 12
   7  10  10  10  10   1 12
   0   0   0   0   0   0 
